
Gurobi 9.5.2 (win64) logging started Fri Oct  6 15:02:53 2023

Set parameter LogFile to value "./ccga_results/2023-10-06 15-02-41-693/MSP_TimeStampConvert_gurobi_log.txt"
Set parameter TimeLimit to value 7195

Gurobi 9.5.2 (win64) logging started Fri Oct  6 15:02:56 2023

Set parameter LogFile to value "./ccga_results/2023-10-06 15-02-41-693/MSP_TimeStampConvert_gurobi_log.txt"
Set parameter TimeLimit to value 7195
Gurobi Optimizer version 9.5.2 build v9.5.2rc0 (win64)
Thread count: 10 physical cores, 20 logical processors, using up to 20 threads
Optimize a model with 584 rows, 441 columns and 1438 nonzeros
Model fingerprint: 0xa7155132
Variable types: 9 continuous, 432 integer (432 binary)
Coefficient statistics:
  Matrix range     [1e+00, 1e+00]
  Objective range  [1e+00, 1e+00]
  Bounds range     [1e+03, 1e+03]
  RHS range        [1e+00, 1e+00]
Found heuristic solution: objective 8000.0000000

Explored 0 nodes (0 simplex iterations) in 0.00 seconds (0.00 work units)
Thread count was 1 (of 20 available processors)

Solution count 1: 8000 

Optimal solution found (tolerance 1.00e-02)
Best objective 8.000000000000e+03, best bound 8.000000000000e+03, gap 0.0000%

User-callback calls 21, time in user-callback 0.00 sec
